TCS_Benchmarks/redos_fix/snort3_output_distinct_3608_3607_0_0.txt
([^
]*)([A-Za-z]+)
([^
]*)(\/[rR][eE][aA][dD]\/)([A-Za-z]+)